(set-logic ALL)
(set-option :produce-models true)
(declare-sort BoundSet 0)
(declare-sort UnboundSet 0)
(declare-fun IsReading (BoundSet) Bool)
(declare-fun HasBook (BoundSet BoundSet) Bool)
(assert (not (=> (exists ((b BoundSet)) (exists ((a BoundSet)) (and (IsReading a) (HasBook a b)))) (exists ((a BoundSet)) (IsReading a)))))
(check-sat)
(get-model)